10	5
0	5	2	4	10	1	3
1	1	6
2	2	9	7
3	2	5	8
4	1	11
5	0
6	1	11
7	1	11
8	1	11
9	1	11
10	1	11
11	0
0	0	0	0	0	0	0
1	7	0	0	2	0	1
2	2	4	3	0	0	0
3	10	0	0	0	4	0
4	7	3	2	0	5	2
5	3	0	3	2	2	5
6	9	1	2	0	2	0
7	6	3	0	3	3	0
8	5	0	0	1	0	2
9	6	0	5	0	4	0
10	8	0	3	0	3	0
11	0	0	0	0	0	0
6	9	6	13	7
